1
2
3
12
11
10
20
19
28
37
29
30
31
32
41
40
39
48
38
47
46
55
56
57
58
59
60
51
52
53
54
45
44
34
43
42
33
24
25
26
35
36
27
17
18
9
8
7
6
5
14
4
13
22
21
23
15
16
50
49
61
62
63
72
71
70
69
78
77
76
85
84
83
82
91
92
93
94
95
86
87
88
79
80
81
89
90
99
98
97
96
75
74
65
66
67
68
64
73
1
